n= 4
m= 50
1000
2000
2500
3000
675	32	4
1246	36	4
1117	16	2
790	35	7
1859	25	5
502	81	9
699	63	7
272	16	2
1604	42	6
1907	18	2
1335	25	5
1530	32	4
793	81	9
1615	54	9
974	49	7
1432	45	5
693	7	1
790	72	8
755	20	4
1712	72	9
1585	54	9
1676	7	1
1085	45	9
942	64	8
1146	30	6
1447	6	1
832	48	6
688	30	6
1138	28	4
1136	16	2
575	45	9
2152	24	3
411	6	1
2048	35	5
653	63	7
2141	27	3
2363	8	1
575	5	1
1846	45	5
2396	30	6
1101	15	3
1677	24	4
850	81	9
735	24	4
550	72	9
2080	63	9
904	48	8
946	14	2
1689	49	7
2309	27	3
